NAME : portcgen-10-10
COMMENT : portcgen N=10, seed=10
TYPE : TSP
DIMENSION : 10
EDGE_WEIGHT_TYPE : EUC_2D
NODE_COORD_SECTION
1 108 75
2 109 76
3 78 59
4 88 84
5 88 102
6 95 65
7 65 59
8 78 99
9 93 40
10 85 63
